p edge 150 4470
e 1 2
e 1 3
e 1 12
e 1 13
e 1 14
e 1 15
e 1 16
e 1 17
e 1 21
e 1 22
e 1 25
e 1 31
e 1 32
e 1 33
e 1 35
e 1 36
e 1 37
e 1 38
e 1 41
e 1 44
e 1 50
e 1 51
e 1 56
e 1 58
e 1 60
e 1 64
e 1 65
e 1 68
e 1 72
e 1 77
e 1 78
e 1 84
e 1 87
e 1 90
e 1 91
e 1 94
e 1 97
e 1 98
e 1 101
e 1 104
e 1 106
e 1 107
e 1 109
e 1 110
e 1 117
e 1 119
e 1 120
e 1 130
e 1 133
e 1 134
e 1 136
e 1 137
e 1 138
e 1 139
e 1 143
e 1 145
e 1 146
e 2 3
e 2 5
e 2 6
e 2 8
e 2 9
e 2 14
e 2 18
e 2 19
e 2 22
e 2 23
e 2 25
e 2 26
e 2 29
e 2 32
e 2 34
e 2 35
e 2 38
e 2 42
e 2 46
e 2 47
e 2 52
e 2 55
e 2 56
e 2 67
e 2 68
e 2 69
e 2 73
e 2 74
e 2 75
e 2 77
e 2 78
e 2 79
e 2 81
e 2 82
e 2 84
e 2 93
e 2 94
e 2 100
e 2 105
e 2 107
e 2 114
e 2 118
e 2 119
e 2 120
e 2 125
e 2 128
e 2 131
e 2 132
e 2 135
e 2 138
e 2 141
e 2 145
e 2 148
e 2 150
e 3 7
e 3 8
e 3 12
e 3 16
e 3 17
e 3 20
e 3 21
e 3 24
e 3 28
e 3 31
e 3 32
e 3 33
e 3 36
e 3 42
e 3 43
e 3 46
e 3 47
e 3 48
e 3 49
e 3 51
e 3 57
e 3 59
e 3 60
e 3 62
e 3 63
e 3 64
e 3 68
e 3 70
e 3 72
e 3 75
e 3 78
e 3 90
e 3 91
e 3 93
e 3 95
e 3 97
e 3 98
e 3 100
e 3 101
e 3 104
e 3 107
e 3 110
e 3 111
e 3 112
e 3 116
e 3 120
e 3 122
e 3 125
e 3 126
e 3 130
e 3 131
e 3 132
e 3 133
e 3 136
e 3 141
e 3 146
e 4 6
e 4 10
e 4 11
e 4 13
e 4 17
e 4 21
e 4 22
e 4 23
e 4 26
e 4 27
e 4 29
e 4 30
e 4 38
e 4 39
e 4 40
e 4 41
e 4 42
e 4 43
e 4 44
e 4 46
e 4 48
e 4 49
e 4 50
e 4 51
e 4 54
e 4 58
e 4 60
e 4 61
e 4 62
e 4 63
e 4 64
e 4 65
e 4 66
e 4 67
e 4 69
e 4 71
e 4 72
e 4 78
e 4 79
e 4 82
e 4 88
e 4 91
e 4 92
e 4 94
e 4 95
e 4 96
e 4 99
e 4 101
e 4 105
e 4 107
e 4 113
e 4 115
e 4 119
e 4 126
e 4 127
e 4 133
e 4 134
e 4 135
e 4 139
e 4 140
e 4 142
e 4 143
e 4 145
e 4 149
e 4 150
e 5 7
e 5 8
e 5 10
e 5 12
e 5 14
e 5 18
e 5 21
e 5 22
e 5 25
e 5 29
e 5 30
e 5 35
e 5 36
e 5 37
e 5 44
e 5 45
e 5 47
e 5 51
e 5 55
e 5 60
e 5 68
e 5 72
e 5 73
e 5 74
e 5 75
e 5 77
e 5 78
e 5 81
e 5 83
e 5 85
e 5 86
e 5 88
e 5 89
e 5 96
e 5 99
e 5 103
e 5 105
e 5 107
e 5 108
e 5 109
e 5 112
e 5 113
e 5 114
e 5 116
e 5 118
e 5 119
e 5 121
e 5 126
e 5 127
e 5 128
e 5 129
e 5 132
e 5 137
e 5 138
e 5 143
e 5 144
e 6 7
e 6 8
e 6 9
e 6 11
e 6 16
e 6 18
e 6 19
e 6 20
e 6 21
e 6 23
e 6 24
e 6 26
e 6 29
e 6 30
e 6 32
e 6 34
e 6 35
e 6 38
e 6 39
e 6 40
e 6 42
e 6 43
e 6 55
e 6 56
e 6 57
e 6 60
e 6 66
e 6 69
e 6 71
e 6 74
e 6 75
e 6 77
e 6 78
e 6 81
e 6 82
e 6 86
e 6 94
e 6 97
e 6 98
e 6 100
e 6 101
e 6 102
e 6 103
e 6 104
e 6 105
e 6 109
e 6 110
e 6 112
e 6 116
e 6 117
e 6 119
e 6 123
e 6 124
e 6 125
e 6 131
e 6 134
e 6 140
e 6 141
e 6 142
e 6 145
e 6 148
e 7 9
e 7 10
e 7 13
e 7 15
e 7 17
e 7 18
e 7 24
e 7 25
e 7 27
e 7 32
e 7 33
e 7 36
e 7 40
e 7 43
e 7 44
e 7 47
e 7 52
e 7 55
e 7 56
e 7 58
e 7 59
e 7 61
e 7 63
e 7 68
e 7 75
e 7 77
e 7 79
e 7 81
e 7 83
e 7 85
e 7 86
e 7 88
e 7 89
e 7 95
e 7 99
e 7 100
e 7 102
e 7 108
e 7 113
e 7 119
e 7 120
e 7 121
e 7 122
e 7 125
e 7 126
e 7 130
e 7 131
e 7 133
e 7 139
e 7 140
e 7 145
e 7 147
e 7 148
e 7 149
e 8 9
e 8 10
e 8 12
e 8 15
e 8 18
e 8 19
e 8 21
e 8 22
e 8 23
e 8 26
e 8 28
e 8 32
e 8 34
e 8 41
e 8 47
e 8 49
e 8 52
e 8 55
e 8 56
e 8 57
e 8 62
e 8 64
e 8 65
e 8 67
e 8 70
e 8 71
e 8 72
e 8 74
e 8 76
e 8 81
e 8 84
e 8 85
e 8 87
e 8 96
e 8 97
e 8 100
e 8 102
e 8 104
e 8 105
e 8 106
e 8 107
e 8 108
e 8 115
e 8 120
e 8 122
e 8 123
e 8 125
e 8 127
e 8 128
e 8 129
e 8 130
e 8 132
e 8 133
e 8 145
e 8 146
e 8 147
e 8 150
e 9 12
e 9 14
e 9 16
e 9 18
e 9 24
e 9 32
e 9 33
e 9 34
e 9 36
e 9 37
e 9 39
e 9 41
e 9 43
e 9 44
e 9 46
e 9 48
e 9 52
e 9 57
e 9 59
e 9 61
e 9 62
e 9 63
e 9 66
e 9 67
e 9 70
e 9 86
e 9 87
e 9 91
e 9 94
e 9 95
e 9 99
e 9 100
e 9 101
e 9 102
e 9 106
e 9 108
e 9 110
e 9 111
e 9 112
e 9 114
e 9 122
e 9 127
e 9 130
e 9 133
e 9 136
e 9 137
e 9 138
e 9 139
e 9 140
e 9 142
e 9 143
e 9 145
e 10 12
e 10 14
e 10 17
e 10 19
e 10 24
e 10 25
e 10 27
e 10 28
e 10 30
e 10 31
e 10 32
e 10 38
e 10 39
e 10 40
e 10 42
e 10 45
e 10 49
e 10 52
e 10 53
e 10 57
e 10 58
e 10 59
e 10 71
e 10 72
e 10 76
e 10 80
e 10 81
e 10 83
e 10 84
e 10 87
e 10 88
e 10 89
e 10 93
e 10 94
e 10 96
e 10 97
e 10 99
e 10 100
e 10 104
e 10 105
e 10 107
e 10 113
e 10 116
e 10 120
e 10 126
e 10 128
e 10 130
e 10 131
e 10 132
e 10 133
e 10 135
e 10 140
e 10 143
e 10 145
e 10 146
e 10 148
e 10 150
e 11 12
e 11 13
e 11 16
e 11 17
e 11 24
e 11 30
e 11 34
e 11 38
e 11 40
e 11 42
e 11 44
e 11 45
e 11 46
e 11 47
e 11 48
e 11 49
e 11 51
e 11 54
e 11 55
e 11 57
e 11 60
e 11 61
e 11 66
e 11 67
e 11 72
e 11 74
e 11 77
e 11 78
e 11 79
e 11 81
e 11 82
e 11 84
e 11 87
e 11 89
e 11 103
e 11 106
e 11 107
e 11 112
e 11 114
e 11 117
e 11 120
e 11 121
e 11 123
e 11 125
e 11 126
e 11 129
e 11 131
e 11 140
e 11 142
e 11 144
e 11 145
e 12 16
e 12 21
e 12 22
e 12 23
e 12 24
e 12 25
e 12 27
e 12 34
e 12 36
e 12 41
e 12 44
e 12 45
e 12 46
e 12 52
e 12 53
e 12 56
e 12 57
e 12 59
e 12 63
e 12 70
e 12 71
e 12 74
e 12 76
e 12 77
e 12 78
e 12 79
e 12 85
e 12 87
e 12 89
e 12 91
e 12 94
e 12 95
e 12 96
e 12 97
e 12 100
e 12 101
e 12 108
e 12 110
e 12 113
e 12 116
e 12 117
e 12 118
e 12 120
e 12 122
e 12 124
e 12 125
e 12 129
e 12 130
e 12 132
e 12 136
e 12 138
e 12 142
e 12 145
e 12 149
e 13 14
e 13 18
e 13 26
e 13 32
e 13 33
e 13 37
e 13 45
e 13 46
e 13 47
e 13 51
e 13 55
e 13 57
e 13 65
e 13 67
e 13 76
e 13 78
e 13 79
e 13 80
e 13 82
e 13 95
e 13 98
e 13 100
e 13 102
e 13 103
e 13 104
e 13 107
e 13 109
e 13 111
e 13 115
e 13 116
e 13 117
e 13 118
e 13 119
e 13 120
e 13 121
e 13 122
e 13 127
e 13 128
e 13 130
e 13 131
e 13 132
e 13 133
e 13 136
e 13 137
e 13 138
e 13 140
e 13 143
e 13 146
e 13 148
e 13 149
e 14 16
e 14 23
e 14 28
e 14 30
e 14 36
e 14 44
e 14 46
e 14 47
e 14 48
e 14 53
e 14 57
e 14 58
e 14 60
e 14 61
e 14 62
e 14 64
e 14 65
e 14 71
e 14 74
e 14 75
e 14 77
e 14 84
e 14 86
e 14 87
e 14 88
e 14 89
e 14 91
e 14 92
e 14 97
e 14 98
e 14 100
e 14 106
e 14 109
e 14 110
e 14 112
e 14 113
e 14 114
e 14 121
e 14 122
e 14 126
e 14 127
e 14 128
e 14 130
e 14 135
e 14 136
e 14 140
e 14 143
e 14 145
e 14 150
e 15 16
e 15 19
e 15 20
e 15 22
e 15 24
e 15 25
e 15 28
e 15 36
e 15 40
e 15 41
e 15 43
e 15 45
e 15 47
e 15 50
e 15 53
e 15 55
e 15 56
e 15 58
e 15 60
e 15 65
e 15 69
e 15 71
e 15 74
e 15 79
e 15 80
e 15 81
e 15 83
e 15 85
e 15 89
e 15 90
e 15 92
e 15 94
e 15 96
e 15 97
e 15 103
e 15 104
e 15 106
e 15 107
e 15 108
e 15 110
e 15 111
e 15 118
e 15 119
e 15 121
e 15 122
e 15 123
e 15 124
e 15 129
e 15 130
e 15 134
e 15 135
e 15 140
e 15 141
e 15 144
e 15 147
e 15 149
e 16 18
e 16 19
e 16 22
e 16 24
e 16 29
e 16 31
e 16 33
e 16 34
e 16 37
e 16 39
e 16 42
e 16 44
e 16 45
e 16 50
e 16 52
e 16 53
e 16 56
e 16 57
e 16 59
e 16 63
e 16 67
e 16 69
e 16 70
e 16 80
e 16 82
e 16 84
e 16 88
e 16 89
e 16 90
e 16 91
e 16 94
e 16 108
e 16 112
e 16 115
e 16 117
e 16 119
e 16 120
e 16 121
e 16 125
e 16 126
e 16 127
e 16 134
e 16 139
e 16 142
e 16 144
e 17 18
e 17 19
e 17 21
e 17 23
e 17 25
e 17 29
e 17 32
e 17 34
e 17 38
e 17 41
e 17 42
e 17 45
e 17 46
e 17 50
e 17 51
e 17 54
e 17 56
e 17 57
e 17 59
e 17 60
e 17 65
e 17 67
e 17 71
e 17 72
e 17 73
e 17 80
e 17 86
e 17 88
e 17 93
e 17 95
e 17 97
e 17 99
e 17 101
e 17 105
e 17 108
e 17 110
e 17 112
e 17 113
e 17 115
e 17 116
e 17 119
e 17 121
e 17 125
e 17 126
e 17 127
e 17 128
e 17 130
e 17 131
e 17 132
e 17 136
e 17 140
e 17 141
e 17 145
e 17 146
e 17 148
e 17 150
e 18 20
e 18 21
e 18 29
e 18 30
e 18 33
e 18 35
e 18 39
e 18 42
e 18 44
e 18 45
e 18 46
e 18 47
e 18 48
e 18 51
e 18 54
e 18 55
e 18 56
e 18 65
e 18 68
e 18 70
e 18 71
e 18 72
e 18 73
e 18 75
e 18 80
e 18 81
e 18 83
e 18 84
e 18 85
e 18 86
e 18 87
e 18 88
e 18 89
e 18 91
e 18 92
e 18 94
e 18 100
e 18 101
e 18 106
e 18 107
e 18 108
e 18 109
e 18 113
e 18 116
e 18 117
e 18 120
e 18 121
e 18 123
e 18 125
e 18 127
e 18 130
e 18 133
e 18 136
e 18 137
e 18 140
e 18 141
e 18 145
e 18 150
e 19 22
e 19 23
e 19 25
e 19 28
e 19 30
e 19 32
e 19 34
e 19 35
e 19 36
e 19 37
e 19 38
e 19 39
e 19 40
e 19 41
e 19 44
e 19 45
e 19 47
e 19 51
e 19 52
e 19 61
e 19 63
e 19 64
e 19 65
e 19 70
e 19 76
e 19 77
e 19 80
e 19 83
e 19 87
e 19 88
e 19 89
e 19 92
e 19 93
e 19 97
e 19 99
e 19 103
e 19 107
e 19 110
e 19 111
e 19 113
e 19 115
e 19 116
e 19 118
e 19 121
e 19 124
e 19 127
e 19 128
e 19 130
e 19 131
e 19 132
e 19 133
e 19 138
e 19 145
e 19 147
e 19 149
e 19 150
e 20 21
e 20 23
e 20 24
e 20 25
e 20 28
e 20 30
e 20 32
e 20 33
e 20 37
e 20 39
e 20 40
e 20 41
e 20 42
e 20 43
e 20 44
e 20 45
e 20 46
e 20 49
e 20 51
e 20 60
e 20 61
e 20 62
e 20 65
e 20 66
e 20 69
e 20 75
e 20 76
e 20 78
e 20 80
e 20 86
e 20 88
e 20 89
e 20 92
e 20 93
e 20 94
e 20 96
e 20 100
e 20 103
e 20 109
e 20 113
e 20 114
e 20 116
e 20 118
e 20 120
e 20 123
e 20 128
e 20 129
e 20 132
e 20 133
e 20 134
e 20 136
e 20 138
e 20 140
e 20 143
e 20 144
e 20 147
e 20 149
e 21 24
e 21 25
e 21 26
e 21 27
e 21 28
e 21 29
e 21 30
e 21 37
e 21 38
e 21 39
e 21 40
e 21 41
e 21 42
e 21 43
e 21 47
e 21 51
e 21 58
e 21 59
e 21 61
e 21 62
e 21 63
e 21 64
e 21 65
e 21 66
e 21 68
e 21 72
e 21 75
e 21 77
e 21 81
e 21 83
e 21 85
e 21 91
e 21 92
e 21 97
e 21 100
e 21 101
e 21 102
e 21 103
e 21 105
e 21 106
e 21 108
e 21 110
e 21 112
e 21 113
e 21 116
e 21 119
e 21 120
e 21 124
e 21 133
e 21 135
e 21 137
e 21 141
e 21 143
e 21 144
e 21 146
e 21 147
e 21 148
e 21 149
e 22 24
e 22 25
e 22 27
e 22 35
e 22 36
e 22 39
e 22 43
e 22 46
e 22 47
e 22 48
e 22 50
e 22 51
e 22 54
e 22 55
e 22 57
e 22 58
e 22 61
e 22 65
e 22 66
e 22 69
e 22 72
e 22 73
e 22 74
e 22 75
e 22 76
e 22 83
e 22 84
e 22 92
e 22 94
e 22 99
e 22 102
e 22 113
e 22 114
e 22 117
e 22 118
e 22 119
e 22 122
e 22 123
e 22 125
e 22 127
e 22 131
e 22 133
e 22 134
e 22 136
e 22 137
e 22 138
e 22 143
e 22 146
e 22 148
e 22 149
e 22 150
e 23 24
e 23 27
e 23 28
e 23 34
e 23 40
e 23 45
e 23 48
e 23 49
e 23 53
e 23 55
e 23 59
e 23 60
e 23 62
e 23 63
e 23 65
e 23 66
e 23 67
e 23 68
e 23 70
e 23 71
e 23 72
e 23 73
e 23 74
e 23 78
e 23 80
e 23 84
e 23 85
e 23 86
e 23 87
e 23 88
e 23 89
e 23 92
e 23 96
e 23 97
e 23 100
e 23 101
e 23 104
e 23 106
e 23 108
e 23 112
e 23 113
e 23 117
e 23 122
e 23 127
e 23 128
e 23 131
e 23 132
e 23 134
e 23 135
e 23 136
e 23 137
e 23 138
e 23 143
e 24 32
e 24 39
e 24 40
e 24 46
e 24 47
e 24 49
e 24 51
e 24 52
e 24 58
e 24 61
e 24 63
e 24 69
e 24 72
e 24 74
e 24 78
e 24 79
e 24 81
e 24 84
e 24 95
e 24 98
e 24 100
e 24 105
e 24 106
e 24 111
e 24 112
e 24 113
e 24 117
e 24 119
e 24 126
e 24 127
e 24 133
e 24 137
e 24 139
e 24 142
e 24 144
e 24 145
e 24 147
e 25 26
e 25 28
e 25 29
e 25 31
e 25 32
e 25 33
e 25 35
e 25 36
e 25 42
e 25 47
e 25 50
e 25 51
e 25 57
e 25 60
e 25 61
e 25 63
e 25 68
e 25 73
e 25 74
e 25 75
e 25 79
e 25 82
e 25 83
e 25 89
e 25 90
e 25 96
e 25 106
e 25 108
e 25 112
e 25 116
e 25 120
e 25 128
e 25 129
e 25 130
e 25 131
e 25 133
e 25 135
e 25 137
e 25 138
e 25 141
e 25 144
e 25 145
e 25 150
e 26 29
e 26 32
e 26 33
e 26 34
e 26 36
e 26 38
e 26 39
e 26 46
e 26 48
e 26 52
e 26 56
e 26 62
e 26 64
e 26 65
e 26 67
e 26 68
e 26 71
e 26 72
e 26 73
e 26 74
e 26 75
e 26 78
e 26 82
e 26 86
e 26 88
e 26 91
e 26 94
e 26 96
e 26 98
e 26 99
e 26 101
e 26 102
e 26 103
e 26 104
e 26 109
e 26 112
e 26 113
e 26 114
e 26 115
e 26 118
e 26 125
e 26 126
e 26 127
e 26 130
e 26 134
e 26 135
e 26 137
e 26 143
e 26 145
e 27 28
e 27 29
e 27 31
e 27 34
e 27 39
e 27 40
e 27 43
e 27 44
e 27 45
e 27 48
e 27 50
e 27 51
e 27 54
e 27 55
e 27 56
e 27 59
e 27 64
e 27 66
e 27 70
e 27 71
e 27 74
e 27 77
e 27 79
e 27 83
e 27 84
e 27 86
e 27 88
e 27 89
e 27 90
e 27 93
e 27 95
e 27 101
e 27 104
e 27 106
e 27 113
e 27 115
e 27 123
e 27 124
e 27 125
e 27 133
e 27 134
e 27 136
e 27 138
e 27 141
e 27 143
e 27 147
e 27 148
e 28 30
e 28 32
e 28 35
e 28 36
e 28 37
e 28 43
e 28 44
e 28 45
e 28 46
e 28 49
e 28 51
e 28 55
e 28 58
e 28 59
e 28 62
e 28 63
e 28 64
e 28 69
e 28 72
e 28 74
e 28 75
e 28 76
e 28 80
e 28 82
e 28 85
e 28 92
e 28 93
e 28 94
e 28 96
e 28 98
e 28 101
e 28 102
e 28 105
e 28 107
e 28 109
e 28 110
e 28 112
e 28 117
e 28 120
e 28 125
e 28 129
e 28 132
e 28 134
e 28 137
e 28 142
e 28 144
e 28 147
e 28 148
e 28 149
e 28 150
e 29 32
e 29 39
e 29 42
e 29 44
e 29 46
e 29 48
e 29 54
e 29 57
e 29 61
e 29 62
e 29 63
e 29 65
e 29 68
e 29 73
e 29 74
e 29 79
e 29 83
e 29 85
e 29 92
e 29 94
e 29 95
e 29 96
e 29 97
e 29 98
e 29 100
e 29 106
e 29 108
e 29 112
e 29 114
e 29 116
e 29 119
e 29 120
e 29 122
e 29 123
e 29 125
e 29 128
e 29 129
e 29 130
e 29 131
e 29 132
e 29 135
e 29 139
e 29 141
e 29 143
e 29 147
e 29 150
e 30 31
e 30 33
e 30 34
e 30 38
e 30 41
e 30 45
e 30 46
e 30 48
e 30 49
e 30 52
e 30 53
e 30 54
e 30 57
e 30 59
e 30 60
e 30 61
e 30 65
e 30 66
e 30 67
e 30 68
e 30 70
e 30 71
e 30 72
e 30 74
e 30 75
e 30 76
e 30 79
e 30 83
e 30 85
e 30 87
e 30 90
e 30 92
e 30 93
e 30 95
e 30 96
e 30 97
e 30 98
e 30 104
e 30 105
e 30 106
e 30 111
e 30 115
e 30 117
e 30 125
e 30 126
e 30 127
e 30 128
e 30 131
e 30 133
e 30 137
e 30 138
e 30 141
e 30 143
e 30 144
e 30 145
e 30 149
e 31 34
e 31 36
e 31 38
e 31 47
e 31 48
e 31 50
e 31 53
e 31 54
e 31 55
e 31 58
e 31 60
e 31 61
e 31 62
e 31 64
e 31 67
e 31 68
e 31 71
e 31 73
e 31 74
e 31 75
e 31 76
e 31 79
e 31 86
e 31 88
e 31 90
e 31 92
e 31 98
e 31 99
e 31 104
e 31 106
e 31 107
e 31 108
e 31 109
e 31 111
e 31 112
e 31 117
e 31 119
e 31 120
e 31 123
e 31 125
e 31 127
e 31 128
e 31 129
e 31 134
e 31 135
e 31 140
e 31 141
e 31 142
e 31 144
e 31 146
e 31 149
e 31 150
e 32 33
e 32 36
e 32 37
e 32 39
e 32 44
e 32 46
e 32 49
e 32 58
e 32 60
e 32 61
e 32 62
e 32 65
e 32 66
e 32 67
e 32 69
e 32 72
e 32 73
e 32 76
e 32 77
e 32 80
e 32 82
e 32 86
e 32 87
e 32 88
e 32 89
e 32 94
e 32 95
e 32 96
e 32 102
e 32 107
e 32 110
e 32 114
e 32 116
e 32 118
e 32 119
e 32 132
e 32 133
e 32 134
e 32 137
e 32 138
e 32 139
e 32 141
e 32 142
e 32 144
e 32 146
e 33 37
e 33 38
e 33 42
e 33 44
e 33 46
e 33 47
e 33 50
e 33 56
e 33 57
e 33 58
e 33 63
e 33 65
e 33 66
e 33 67
e 33 68
e 33 69
e 33 74
e 33 77
e 33 78
e 33 80
e 33 83
e 33 84
e 33 87
e 33 89
e 33 90
e 33 91
e 33 92
e 33 93
e 33 100
e 33 101
e 33 102
e 33 106
e 33 107
e 33 108
e 33 109
e 33 115
e 33 116
e 33 119
e 33 129
e 33 135
e 33 141
e 33 142
e 33 144
e 33 146
e 34 35
e 34 39
e 34 40
e 34 44
e 34 46
e 34 50
e 34 51
e 34 55
e 34 56
e 34 61
e 34 63
e 34 70
e 34 71
e 34 75
e 34 77
e 34 81
e 34 84
e 34 87
e 34 89
e 34 100
e 34 101
e 34 104
e 34 105
e 34 106
e 34 111
e 34 113
e 34 114
e 34 120
e 34 121
e 34 124
e 34 129
e 34 132
e 34 136
e 34 139
e 34 142
e 34 143
e 34 149
e 35 38
e 35 40
e 35 46
e 35 48
e 35 49
e 35 51
e 35 55
e 35 56
e 35 57
e 35 58
e 35 59
e 35 61
e 35 62
e 35 63
e 35 64
e 35 67
e 35 73
e 35 74
e 35 75
e 35 78
e 35 81
e 35 85
e 35 89
e 35 92
e 35 93
e 35 96
e 35 98
e 35 99
e 35 103
e 35 104
e 35 106
e 35 108
e 35 110
e 35 114
e 35 115
e 35 121
e 35 124
e 35 126
e 35 127
e 35 129
e 35 139
e 35 141
e 35 143
e 35 145
e 35 148
e 35 150
e 36 38
e 36 39
e 36 40
e 36 42
e 36 48
e 36 52
e 36 53
e 36 54
e 36 57
e 36 58
e 36 59
e 36 62
e 36 63
e 36 65
e 36 67
e 36 69
e 36 70
e 36 73
e 36 76
e 36 80
e 36 84
e 36 87
e 36 90
e 36 91
e 36 92
e 36 96
e 36 97
e 36 99
e 36 100
e 36 101
e 36 110
e 36 111
e 36 112
e 36 113
e 36 117
e 36 121
e 36 126
e 36 130
e 36 134
e 36 145
e 36 146
e 36 147
e 37 40
e 37 42
e 37 44
e 37 47
e 37 48
e 37 49
e 37 52
e 37 54
e 37 59
e 37 60
e 37 63
e 37 65
e 37 66
e 37 67
e 37 68
e 37 69
e 37 72
e 37 74
e 37 75
e 37 78
e 37 79
e 37 82
e 37 83
e 37 90
e 37 91
e 37 94
e 37 99
e 37 101
e 37 102
e 37 108
e 37 109
e 37 113
e 37 114
e 37 119
e 37 122
e 37 123
e 37 126
e 37 129
e 37 132
e 37 133
e 37 135
e 37 136
e 37 140
e 37 141
e 37 146
e 37 148
e 38 41
e 38 42
e 38 45
e 38 47
e 38 48
e 38 50
e 38 57
e 38 58
e 38 59
e 38 60
e 38 61
e 38 62
e 38 66
e 38 67
e 38 70
e 38 71
e 38 73
e 38 76
e 38 77
e 38 81
e 38 84
e 38 87
e 38 91
e 38 94
e 38 95
e 38 96
e 38 97
e 38 100
e 38 103
e 38 105
e 38 106
e 38 107
e 38 108
e 38 111
e 38 112
e 38 113
e 38 114
e 38 115
e 38 118
e 38 119
e 38 121
e 38 125
e 38 127
e 38 128
e 38 129
e 38 131
e 38 133
e 38 134
e 38 136
e 38 137
e 38 138
e 38 142
e 38 145
e 38 147
e 38 148
e 39 41
e 39 45
e 39 55
e 39 57
e 39 59
e 39 61
e 39 67
e 39 72
e 39 73
e 39 75
e 39 77
e 39 79
e 39 82
e 39 88
e 39 89
e 39 91
e 39 92
e 39 94
e 39 95
e 39 97
e 39 101
e 39 102
e 39 103
e 39 113
e 39 123
e 39 124
e 39 127
e 39 128
e 39 129
e 39 130
e 39 132
e 39 135
e 39 136
e 39 141
e 39 150
e 40 42
e 40 43
e 40 47
e 40 51
e 40 52
e 40 53
e 40 54
e 40 55
e 40 57
e 40 58
e 40 60
e 40 61
e 40 63
e 40 64
e 40 66
e 40 67
e 40 68
e 40 70
e 40 71
e 40 77
e 40 80
e 40 84
e 40 87
e 40 91
e 40 93
e 40 95
e 40 96
e 40 100
e 40 102
e 40 103
e 40 104
e 40 105
e 40 106
e 40 108
e 40 109
e 40 110
e 40 111
e 40 112
e 40 117
e 40 118
e 40 121
e 40 123
e 40 124
e 40 132
e 40 138
e 40 139
e 40 141
e 40 144
e 40 145
e 40 150
e 41 43
e 41 50
e 41 51
e 41 53
e 41 55
e 41 57
e 41 63
e 41 64
e 41 66
e 41 67
e 41 68
e 41 69
e 41 70
e 41 71
e 41 73
e 41 75
e 41 78
e 41 80
e 41 85
e 41 88
e 41 92
e 41 93
e 41 94
e 41 97
e 41 100
e 41 103
e 41 105
e 41 107
e 41 109
e 41 115
e 41 116
e 41 119
e 41 120
e 41 121
e 41 122
e 41 125
e 41 126
e 41 127
e 41 133
e 41 134
e 41 135
e 41 138
e 41 143
e 41 144
e 41 145
e 41 149
e 42 44
e 42 45
e 42 46
e 42 47
e 42 50
e 42 53
e 42 54
e 42 56
e 42 59
e 42 60
e 42 63
e 42 69
e 42 70
e 42 71
e 42 73
e 42 77
e 42 78
e 42 80
e 42 81
e 42 85
e 42 87
e 42 89
e 42 96
e 42 97
e 42 98
e 42 100
e 42 102
e 42 106
e 42 108
e 42 109
e 42 110
e 42 114
e 42 116
e 42 126
e 42 127
e 42 131
e 42 132
e 42 137
e 42 140
e 42 142
e 42 145
e 42 147
e 42 148
e 42 150
e 43 47
e 43 48
e 43 54
e 43 56
e 43 58
e 43 61
e 43 62
e 43 65
e 43 66
e 43 67
e 43 68
e 43 73
e 43 76
e 43 80
e 43 84
e 43 86
e 43 88
e 43 89
e 43 91
e 43 92
e 43 93
e 43 95
e 43 100
e 43 103
e 43 104
e 43 105
e 43 106
e 43 107
e 43 113
e 43 115
e 43 116
e 43 118
e 43 120
e 43 121
e 43 123
e 43 125
e 43 126
e 43 127
e 43 136
e 43 137
e 43 140
e 43 141
e 43 144
e 43 147
e 43 148
e 43 149
e 43 150
e 44 45
e 44 49
e 44 53
e 44 54
e 44 57
e 44 61
e 44 66
e 44 67
e 44 71
e 44 82
e 44 83
e 44 86
e 44 88
e 44 92
e 44 95
e 44 97
e 44 104
e 44 106
e 44 107
e 44 111
e 44 112
e 44 115
e 44 125
e 44 128
e 44 133
e 44 134
e 44 135
e 44 138
e 44 146
e 45 47
e 45 49
e 45 50
e 45 52
e 45 55
e 45 56
e 45 57
e 45 61
e 45 67
e 45 70
e 45 72
e 45 73
e 45 75
e 45 76
e 45 77
e 45 78
e 45 81
e 45 87
e 45 88
e 45 90
e 45 91
e 45 92
e 45 93
e 45 95
e 45 99
e 45 104
e 45 105
e 45 108
e 45 109
e 45 113
e 45 115
e 45 118
e 45 122
e 45 123
e 45 129
e 45 130
e 45 133
e 45 138
e 45 140
e 45 141
e 45 142
e 45 146
e 45 148
e 45 149
e 45 150
e 46 56
e 46 58
e 46 61
e 46 65
e 46 66
e 46 70
e 46 72
e 46 73
e 46 77
e 46 81
e 46 84
e 46 91
e 46 95
e 46 97
e 46 104
e 46 105
e 46 106
e 46 107
e 46 108
e 46 109
e 46 110
e 46 113
e 46 114
e 46 115
e 46 119
e 46 121
e 46 122
e 46 123
e 46 124
e 46 125
e 46 126
e 46 127
e 46 129
e 46 130
e 46 131
e 46 134
e 46 135
e 46 145
e 46 147
e 46 148
e 46 150
e 47 51
e 47 52
e 47 55
e 47 56
e 47 58
e 47 62
e 47 66
e 47 67
e 47 69
e 47 71
e 47 76
e 47 77
e 47 80
e 47 83
e 47 86
e 47 87
e 47 89
e 47 91
e 47 92
e 47 98
e 47 101
e 47 107
e 47 109
e 47 114
e 47 116
e 47 119
e 47 122
e 47 123
e 47 124
e 47 130
e 47 132
e 47 133
e 47 134
e 47 141
e 47 145
e 47 146
e 47 148
e 47 150
e 48 51
e 48 53
e 48 55
e 48 57
e 48 58
e 48 59
e 48 61
e 48 67
e 48 70
e 48 75
e 48 80
e 48 87
e 48 88
e 48 89
e 48 91
e 48 92
e 48 95
e 48 97
e 48 102
e 48 103
e 48 106
e 48 107
e 48 112
e 48 113
e 48 114
e 48 115
e 48 116
e 48 117
e 48 121
e 48 123
e 48 130
e 48 132
e 48 138
e 48 144
e 48 147
e 48 148
e 49 50
e 49 54
e 49 57
e 49 58
e 49 60
e 49 61
e 49 63
e 49 64
e 49 65
e 49 66
e 49 71
e 49 74
e 49 76
e 49 78
e 49 82
e 49 84
e 49 89
e 49 91
e 49 93
e 49 95
e 49 96
e 49 98
e 49 104
e 49 110
e 49 114
e 49 117
e 49 119
e 49 120
e 49 126
e 49 128
e 49 133
e 49 137
e 49 138
e 49 140
e 49 145
e 49 149
e 50 53
e 50 54
e 50 56
e 50 59
e 50 61
e 50 64
e 50 66
e 50 67
e 50 68
e 50 71
e 50 73
e 50 75
e 50 77
e 50 78
e 50 79
e 50 82
e 50 84
e 50 89
e 50 92
e 50 97
e 50 100
e 50 101
e 50 102
e 50 107
e 50 109
e 50 110
e 50 111
e 50 113
e 50 117
e 50 118
e 50 120
e 50 121
e 50 124
e 50 125
e 50 126
e 50 127
e 50 133
e 50 135
e 50 137
e 50 138
e 50 140
e 50 141
e 50 143
e 50 146
e 50 147
e 50 149
e 51 56
e 51 57
e 51 59
e 51 60
e 51 71
e 51 76
e 51 78
e 51 79
e 51 84
e 51 86
e 51 87
e 51 94
e 51 97
e 51 100
e 51 107
e 51 108
e 51 113
e 51 115
e 51 116
e 51 118
e 51 119
e 51 120
e 51 122
e 51 124
e 51 125
e 51 128
e 51 133
e 51 134
e 51 135
e 51 137
e 51 140
e 51 145
e 51 146
e 51 147
e 51 150
e 52 54
e 52 55
e 52 57
e 52 59
e 52 60
e 52 61
e 52 62
e 52 63
e 52 70
e 52 73
e 52 74
e 52 76
e 52 82
e 52 85
e 52 86
e 52 87
e 52 89
e 52 98
e 52 99
e 52 100
e 52 106
e 52 107
e 52 108
e 52 110
e 52 113
e 52 116
e 52 120
e 52 123
e 52 125
e 52 132
e 52 134
e 52 138
e 52 139
e 52 140
e 52 141
e 52 144
e 52 145
e 52 147
e 52 150
e 53 58
e 53 61
e 53 63
e 53 64
e 53 65
e 53 68
e 53 71
e 53 76
e 53 77
e 53 78
e 53 79
e 53 81
e 53 82
e 53 83
e 53 84
e 53 85
e 53 86
e 53 89
e 53 91
e 53 96
e 53 97
e 53 99
e 53 101
e 53 108
e 53 109
e 53 111
e 53 113
e 53 114
e 53 116
e 53 118
e 53 121
e 53 122
e 53 123
e 53 125
e 53 127
e 53 128
e 53 130
e 53 136
e 53 137
e 53 138
e 53 141
e 53 142
e 53 145
e 53 146
e 53 148
e 53 149
e 53 150
e 54 56
e 54 58
e 54 60
e 54 66
e 54 70
e 54 72
e 54 73
e 54 74
e 54 75
e 54 78
e 54 81
e 54 84
e 54 87
e 54 88
e 54 97
e 54 99
e 54 102
e 54 105
e 54 106
e 54 107
e 54 108
e 54 112
e 54 113
e 54 114
e 54 115
e 54 122
e 54 132
e 54 135
e 54 146
e 55 63
e 55 64
e 55 68
e 55 71
e 55 72
e 55 73
e 55 76
e 55 80
e 55 87
e 55 88
e 55 89
e 55 92
e 55 98
e 55 102
e 55 105
e 55 108
e 55 109
e 55 110
e 55 114
e 55 116
e 55 117
e 55 118
e 55 120
e 55 130
e 55 133
e 55 135
e 55 137
e 55 139
e 55 142
e 55 145
e 55 146
e 55 150
e 56 57
e 56 58
e 56 60
e 56 61
e 56 63
e 56 66
e 56 68
e 56 74
e 56 75
e 56 78
e 56 79
e 56 80
e 56 83
e 56 84
e 56 86
e 56 88
e 56 89
e 56 90
e 56 93
e 56 95
e 56 96
e 56 98
e 56 104
e 56 105
e 56 106
e 56 107
e 56 109
e 56 110
e 56 112
e 56 113
e 56 114
e 56 115
e 56 116
e 56 122
e 56 124
e 56 125
e 56 132
e 56 133
e 56 134
e 56 135
e 56 137
e 56 141
e 56 146
e 56 150
e 57 59
e 57 64
e 57 65
e 57 75
e 57 79
e 57 82
e 57 83
e 57 84
e 57 86
e 57 89
e 57 91
e 57 93
e 57 95
e 57 96
e 57 97
e 57 102
e 57 104
e 57 107
e 57 108
e 57 109
e 57 112
e 57 116
e 57 121
e 57 124
e 57 125
e 57 126
e 57 128
e 57 138
e 57 140
e 57 144
e 57 149
e 57 150
e 58 59
e 58 61
e 58 64
e 58 66
e 58 67
e 58 68
e 58 69
e 58 75
e 58 77
e 58 87
e 58 89
e 58 92
e 58 94
e 58 96
e 58 97
e 58 99
e 58 100
e 58 102
e 58 103
e 58 104
e 58 105
e 58 106
e 58 107
e 58 109
e 58 114
e 58 122
e 58 127
e 58 133
e 58 134
e 58 135
e 58 136
e 58 137
e 58 138
e 58 140
e 58 144
e 58 147
e 59 65
e 59 71
e 59 73
e 59 74
e 59 75
e 59 76
e 59 78
e 59 80
e 59 86
e 59 89
e 59 90
e 59 94
e 59 100
e 59 104
e 59 106
e 59 107
e 59 111
e 59 114
e 59 116
e 59 118
e 59 122
e 59 123
e 59 125
e 59 130
e 59 132
e 59 133
e 59 135
e 59 139
e 59 141
e 59 143
e 59 144
e 59 146
e 59 147
e 59 148
e 60 63
e 60 67
e 60 74
e 60 75
e 60 76
e 60 81
e 60 82
e 60 83
e 60 84
e 60 85
e 60 89
e 60 91
e 60 92
e 60 95
e 60 96
e 60 97
e 60 98
e 60 99
e 60 103
e 60 105
e 60 106
e 60 108
e 60 109
e 60 112
e 60 114
e 60 115
e 60 116
e 60 118
e 60 121
e 60 124
e 60 127
e 60 128
e 60 130
e 60 133
e 60 136
e 60 137
e 60 139
e 60 140
e 60 145
e 60 146
e 60 149
e 61 62
e 61 63
e 61 64
e 61 65
e 61 67
e 61 68
e 61 69
e 61 70
e 61 72
e 61 76
e 61 77
e 61 78
e 61 79
e 61 80
e 61 81
e 61 83
e 61 89
e 61 96
e 61 99
e 61 101
e 61 103
e 61 104
e 61 108
e 61 109
e 61 110
e 61 116
e 61 117
e 61 122
e 61 123
e 61 125
e 61 127
e 61 128
e 61 129
e 61 131
e 61 139
e 61 142
e 61 146
e 61 147
e 61 148
e 62 63
e 62 64
e 62 66
e 62 67
e 62 68
e 62 71
e 62 75
e 62 77
e 62 89
e 62 90
e 62 95
e 62 96
e 62 97
e 62 101
e 62 103
e 62 104
e 62 105
e 62 108
e 62 116
e 62 120
e 62 121
e 62 126
e 62 131
e 62 132
e 62 133
e 62 136
e 62 143
e 62 145
e 62 147
e 62 149
e 63 65
e 63 67
e 63 69
e 63 70
e 63 71
e 63 73
e 63 75
e 63 77
e 63 81
e 63 83
e 63 85
e 63 87
e 63 89
e 63 91
e 63 92
e 63 95
e 63 99
e 63 103
e 63 104
e 63 106
e 63 110
e 63 115
e 63 116
e 63 117
e 63 118
e 63 120
e 63 124
e 63 125
e 63 126
e 63 127
e 63 129
e 63 132
e 63 134
e 63 135
e 63 136
e 63 137
e 63 138
e 63 142
e 63 143
e 63 144
e 63 149
e 64 68
e 64 70
e 64 71
e 64 83
e 64 84
e 64 86
e 64 89
e 64 93
e 64 95
e 64 97
e 64 98
e 64 103
e 64 104
e 64 110
e 64 114
e 64 116
e 64 118
e 64 119
e 64 123
e 64 126
e 64 127
e 64 130
e 64 131
e 64 132
e 64 133
e 64 134
e 64 139
e 64 140
e 64 141
e 64 143
e 64 146
e 64 147
e 65 67
e 65 70
e 65 71
e 65 72
e 65 76
e 65 77
e 65 81
e 65 82
e 65 84
e 65 87
e 65 88
e 65 89
e 65 91
e 65 92
e 65 93
e 65 95
e 65 99
e 65 102
e 65 104
e 65 105
e 65 107
e 65 109
e 65 111
e 65 112
e 65 116
e 65 119
e 65 120
e 65 123
e 65 124
e 65 126
e 65 127
e 65 131
e 65 143
e 65 144
e 65 148
e 65 149
e 65 150
e 66 72
e 66 74
e 66 75
e 66 77
e 66 81
e 66 84
e 66 87
e 66 88
e 66 93
e 66 99
e 66 103
e 66 105
e 66 108
e 66 110
e 66 115
e 66 118
e 66 120
e 66 125
e 66 126
e 66 131
e 66 133
e 66 135
e 66 137
e 66 140
e 66 142
e 66 144
e 66 146
e 66 150
e 67 72
e 67 73
e 67 74
e 67 78
e 67 81
e 67 83
e 67 85
e 67 87
e 67 89
e 67 97
e 67 98
e 67 99
e 67 101
e 67 103
e 67 107
e 67 113
e 67 115
e 67 116
e 67 117
e 67 119
e 67 124
e 67 129
e 67 131
e 67 133
e 67 135
e 67 137
e 67 138
e 67 140
e 67 142
e 67 147
e 68 69
e 68 75
e 68 77
e 68 78
e 68 80
e 68 82
e 68 86
e 68 91
e 68 94
e 68 95
e 68 96
e 68 102
e 68 104
e 68 105
e 68 106
e 68 113
e 68 115
e 68 120
e 68 121
e 68 124
e 68 129
e 68 130
e 68 131
e 68 133
e 68 139
e 68 142
e 68 144
e 68 145
e 68 146
e 69 74
e 69 75
e 69 78
e 69 81
e 69 84
e 69 87
e 69 90
e 69 97
e 69 98
e 69 99
e 69 100
e 69 101
e 69 102
e 69 103
e 69 104
e 69 108
e 69 113
e 69 114
e 69 115
e 69 116
e 69 117
e 69 120
e 69 121
e 69 124
e 69 126
e 69 129
e 69 130
e 69 131
e 69 134
e 69 141
e 69 142
e 69 144
e 69 146
e 69 147
e 69 148
e 69 149
e 70 72
e 70 73
e 70 74
e 70 76
e 70 77
e 70 78
e 70 79
e 70 81
e 70 82
e 70 83
e 70 88
e 70 91
e 70 92
e 70 93
e 70 99
e 70 101
e 70 102
e 70 105
e 70 106
e 70 107
e 70 108
e 70 114
e 70 116
e 70 117
e 70 118
e 70 119
e 70 124
e 70 134
e 70 135
e 70 138
e 70 139
e 70 143
e 70 144
e 70 145
e 70 146
e 70 149
e 71 74
e 71 76
e 71 77
e 71 80
e 71 81
e 71 93
e 71 94
e 71 95
e 71 104
e 71 105
e 71 107
e 71 108
e 71 109
e 71 113
e 71 114
e 71 115
e 71 116
e 71 119
e 71 120
e 71 121
e 71 123
e 71 126
e 71 130
e 71 131
e 71 132
e 71 143
e 71 147
e 71 148
e 71 150
e 72 76
e 72 77
e 72 84
e 72 89
e 72 90
e 72 94
e 72 95
e 72 96
e 72 97
e 72 100
e 72 105
e 72 107
e 72 109
e 72 112
e 72 115
e 72 116
e 72 117
e 72 119
e 72 123
e 72 126
e 72 129
e 72 134
e 72 136
e 72 139
e 72 140
e 72 141
e 72 143
e 72 146
e 72 149
e 73 74
e 73 75
e 73 76
e 73 78
e 73 81
e 73 84
e 73 90
e 73 91
e 73 93
e 73 95
e 73 96
e 73 97
e 73 100
e 73 102
e 73 106
e 73 107
e 73 108
e 73 113
e 73 120
e 73 122
e 73 123
e 73 125
e 73 131
e 73 138
e 73 143
e 73 145
e 73 147
e 73 148
e 73 150
e 74 75
e 74 80
e 74 82
e 74 83
e 74 85
e 74 86
e 74 87
e 74 89
e 74 90
e 74 92
e 74 94
e 74 101
e 74 103
e 74 108
e 74 109
e 74 111
e 74 112
e 74 113
e 74 115
e 74 118
e 74 121
e 74 122
e 74 128
e 74 130
e 74 136
e 74 139
e 74 143
e 74 146
e 74 148
e 74 150
e 75 77
e 75 78
e 75 84
e 75 86
e 75 87
e 75 89
e 75 90
e 75 91
e 75 93
e 75 96
e 75 97
e 75 103
e 75 104
e 75 105
e 75 107
e 75 110
e 75 114
e 75 115
e 75 117
e 75 119
e 75 121
e 75 126
e 75 128
e 75 132
e 75 137
e 75 139
e 75 140
e 75 141
e 75 142
e 75 145
e 75 148
e 76 77
e 76 80
e 76 82
e 76 86
e 76 87
e 76 89
e 76 90
e 76 96
e 76 99
e 76 104
e 76 105
e 76 106
e 76 107
e 76 113
e 76 114
e 76 116
e 76 118
e 76 120
e 76 124
e 76 133
e 76 135
e 76 137
e 76 142
e 76 145
e 76 150
e 77 79
e 77 80
e 77 81
e 77 83
e 77 84
e 77 85
e 77 86
e 77 89
e 77 91
e 77 93
e 77 94
e 77 96
e 77 99
e 77 100
e 77 101
e 77 104
e 77 108
e 77 110
e 77 112
e 77 117
e 77 120
e 77 121
e 77 122
e 77 123
e 77 132
e 77 134
e 77 135
e 77 136
e 77 147
e 77 149
e 77 150
e 78 84
e 78 85
e 78 87
e 78 88
e 78 92
e 78 95
e 78 96
e 78 100
e 78 101
e 78 103
e 78 104
e 78 105
e 78 109
e 78 110
e 78 111
e 78 112
e 78 114
e 78 121
e 78 124
e 78 132
e 78 134
e 78 135
e 78 136
e 78 139
e 78 140
e 78 146
e 78 147
e 78 149
e 78 150
e 79 80
e 79 82
e 79 83
e 79 84
e 79 88
e 79 91
e 79 97
e 79 98
e 79 99
e 79 101
e 79 103
e 79 104
e 79 105
e 79 106
e 79 108
e 79 110
e 79 113
e 79 114
e 79 116
e 79 121
e 79 125
e 79 127
e 79 129
e 79 133
e 79 134
e 79 136
e 79 138
e 79 139
e 79 141
e 79 142
e 79 144
e 79 145
e 80 86
e 80 87
e 80 90
e 80 96
e 80 97
e 80 100
e 80 102
e 80 105
e 80 107
e 80 108
e 80 110
e 80 113
e 80 117
e 80 118
e 80 120
e 80 121
e 80 123
e 80 126
e 80 128
e 80 130
e 80 132
e 80 135
e 80 137
e 80 138
e 80 145
e 80 146
e 80 150
e 81 82
e 81 84
e 81 85
e 81 88
e 81 94
e 81 95
e 81 96
e 81 97
e 81 98
e 81 100
e 81 101
e 81 102
e 81 104
e 81 108
e 81 109
e 81 110
e 81 116
e 81 117
e 81 121
e 81 122
e 81 126
e 81 128
e 81 129
e 81 133
e 81 135
e 81 143
e 81 145
e 81 146
e 81 150
e 82 83
e 82 85
e 82 86
e 82 88
e 82 89
e 82 93
e 82 101
e 82 103
e 82 105
e 82 111
e 82 112
e 82 114
e 82 118
e 82 121
e 82 123
e 82 124
e 82 126
e 82 130
e 82 133
e 82 134
e 82 137
e 82 142
e 82 146
e 82 147
e 82 150
e 83 87
e 83 88
e 83 89
e 83 92
e 83 94
e 83 95
e 83 96
e 83 98
e 83 105
e 83 110
e 83 114
e 83 116
e 83 117
e 83 118
e 83 120
e 83 121
e 83 124
e 83 125
e 83 129
e 83 130
e 83 135
e 83 136
e 83 139
e 83 140
e 83 144
e 83 146
e 83 147
e 83 149
e 83 150
e 84 85
e 84 86
e 84 87
e 84 88
e 84 89
e 84 92
e 84 93
e 84 94
e 84 98
e 84 99
e 84 101
e 84 105
e 84 106
e 84 108
e 84 110
e 84 112
e 84 115
e 84 117
e 84 118
e 84 127
e 84 128
e 84 133
e 84 136
e 84 138
e 84 141
e 85 87
e 85 89
e 85 91
e 85 92
e 85 95
e 85 97
e 85 99
e 85 101
e 85 102
e 85 103
e 85 105
e 85 109
e 85 110
e 85 111
e 85 114
e 85 115
e 85 116
e 85 117
e 85 118
e 85 121
e 85 122
e 85 124
e 85 125
e 85 127
e 85 130
e 85 133
e 85 134
e 85 135
e 85 140
e 85 142
e 85 145
e 85 146
e 85 149
e 85 150
e 86 87
e 86 89
e 86 91
e 86 93
e 86 96
e 86 103
e 86 105
e 86 106
e 86 110
e 86 115
e 86 116
e 86 118
e 86 125
e 86 130
e 86 131
e 86 132
e 86 134
e 86 135
e 86 136
e 86 139
e 86 141
e 86 142
e 86 147
e 86 148
e 86 149
e 87 89
e 87 90
e 87 91
e 87 92
e 87 96
e 87 103
e 87 105
e 87 108
e 87 109
e 87 111
e 87 114
e 87 115
e 87 116
e 87 118
e 87 127
e 87 129
e 87 131
e 87 132
e 87 133
e 87 135
e 87 137
e 87 140
e 87 144
e 87 145
e 87 148
e 87 149
e 88 93
e 88 98
e 88 101
e 88 104
e 88 110
e 88 112
e 88 115
e 88 117
e 88 120
e 88 126
e 88 129
e 88 130
e 88 131
e 88 134
e 88 136
e 88 141
e 88 143
e 88 145
e 88 148
e 88 150
e 89 92
e 89 93
e 89 94
e 89 95
e 89 99
e 89 100
e 89 105
e 89 106
e 89 109
e 89 115
e 89 116
e 89 118
e 89 120
e 89 121
e 89 126
e 89 129
e 89 131
e 89 133
e 89 134
e 89 135
e 89 137
e 89 139
e 89 141
e 89 142
e 89 145
e 89 146
e 89 148
e 89 149
e 90 91
e 90 94
e 90 95
e 90 96
e 90 98
e 90 99
e 90 100
e 90 102
e 90 106
e 90 108
e 90 109
e 90 112
e 90 114
e 90 115
e 90 116
e 90 117
e 90 120
e 90 121
e 90 123
e 90 124
e 90 125
e 90 127
e 90 128
e 90 132
e 90 133
e 90 134
e 90 136
e 90 138
e 90 140
e 90 141
e 90 146
e 90 147
e 90 149
e 90 150
e 91 92
e 91 95
e 91 96
e 91 99
e 91 100
e 91 101
e 91 102
e 91 105
e 91 106
e 91 108
e 91 109
e 91 110
e 91 112
e 91 118
e 91 119
e 91 121
e 91 127
e 91 128
e 91 129
e 91 134
e 91 135
e 91 136
e 91 139
e 91 143
e 91 147
e 91 149
e 91 150
e 92 95
e 92 97
e 92 99
e 92 101
e 92 103
e 92 105
e 92 107
e 92 108
e 92 109
e 92 111
e 92 112
e 92 113
e 92 115
e 92 120
e 92 123
e 92 124
e 92 127
e 92 130
e 92 133
e 92 134
e 92 137
e 92 138
e 92 139
e 92 145
e 92 146
e 92 148
e 93 94
e 93 98
e 93 99
e 93 102
e 93 103
e 93 104
e 93 106
e 93 108
e 93 110
e 93 111
e 93 114
e 93 121
e 93 123
e 93 130
e 93 131
e 93 132
e 93 134
e 93 135
e 93 137
e 93 140
e 93 142
e 93 146
e 93 148
e 93 149
e 93 150
e 94 95
e 94 97
e 94 98
e 94 99
e 94 100
e 94 101
e 94 106
e 94 108
e 94 110
e 94 114
e 94 120
e 94 121
e 94 122
e 94 126
e 94 129
e 94 131
e 94 133
e 94 134
e 94 136
e 94 141
e 94 144
e 94 145
e 94 147
e 95 98
e 95 99
e 95 100
e 95 102
e 95 106
e 95 108
e 95 111
e 95 113
e 95 114
e 95 118
e 95 119
e 95 120
e 95 122
e 95 123
e 95 125
e 95 134
e 95 139
e 95 141
e 95 144
e 95 146
e 95 147
e 96 99
e 96 100
e 96 103
e 96 105
e 96 107
e 96 109
e 96 113
e 96 114
e 96 115
e 96 120
e 96 121
e 96 123
e 96 131
e 96 133
e 96 135
e 96 139
e 96 140
e 96 144
e 96 146
e 96 148
e 96 150
e 97 100
e 97 102
e 97 103
e 97 104
e 97 105
e 97 106
e 97 108
e 97 111
e 97 112
e 97 116
e 97 118
e 97 119
e 97 120
e 97 122
e 97 125
e 97 127
e 97 128
e 97 132
e 97 136
e 97 139
e 97 145
e 97 146
e 97 148
e 98 100
e 98 103
e 98 104
e 98 108
e 98 110
e 98 116
e 98 119
e 98 121
e 98 126
e 98 127
e 98 135
e 98 136
e 98 138
e 98 139
e 98 142
e 98 143
e 98 144
e 98 146
e 98 147
e 98 148
e 98 150
e 99 100
e 99 104
e 99 105
e 99 107
e 99 108
e 99 112
e 99 113
e 99 114
e 99 118
e 99 119
e 99 120
e 99 123
e 99 124
e 99 127
e 99 130
e 99 132
e 99 137
e 99 140
e 99 142
e 99 145
e 99 146
e 99 147
e 99 149
e 100 107
e 100 108
e 100 111
e 100 112
e 100 113
e 100 114
e 100 115
e 100 116
e 100 119
e 100 121
e 100 123
e 100 125
e 100 126
e 100 127
e 100 128
e 100 130
e 100 132
e 100 133
e 100 135
e 100 142
e 100 143
e 100 144
e 100 147
e 100 149
e 101 102
e 101 106
e 101 111
e 101 114
e 101 117
e 101 127
e 101 128
e 101 130
e 101 132
e 101 134
e 101 136
e 101 137
e 101 138
e 101 140
e 101 141
e 101 143
e 101 147
e 101 150
e 102 105
e 102 109
e 102 122
e 102 123
e 102 125
e 102 126
e 102 128
e 102 130
e 102 132
e 102 133
e 102 137
e 102 139
e 102 141
e 102 142
e 102 145
e 102 148
e 102 150
e 103 106
e 103 115
e 103 116
e 103 117
e 103 118
e 103 122
e 103 124
e 103 126
e 103 127
e 103 128
e 103 130
e 103 132
e 103 134
e 103 135
e 103 137
e 103 139
e 103 141
e 103 143
e 103 146
e 103 147
e 103 148
e 104 105
e 104 106
e 104 109
e 104 114
e 104 118
e 104 120
e 104 123
e 104 124
e 104 125
e 104 128
e 104 131
e 104 132
e 104 133
e 104 134
e 104 135
e 104 136
e 104 140
e 104 141
e 104 142
e 104 148
e 105 106
e 105 109
e 105 112
e 105 113
e 105 114
e 105 116
e 105 119
e 105 126
e 105 127
e 105 129
e 105 130
e 105 131
e 105 133
e 105 134
e 105 138
e 105 143
e 105 149
e 105 150
e 106 109
e 106 111
e 106 112
e 106 113
e 106 117
e 106 121
e 106 127
e 106 128
e 106 130
e 106 131
e 106 135
e 106 137
e 106 140
e 106 145
e 107 108
e 107 110
e 107 113
e 107 114
e 107 116
e 107 117
e 107 119
e 107 120
e 107 121
e 107 125
e 107 126
e 107 127
e 107 131
e 107 133
e 107 137
e 107 138
e 107 139
e 107 140
e 107 141
e 107 142
e 107 145
e 107 147
e 107 148
e 107 149
e 108 110
e 108 113
e 108 115
e 108 116
e 108 117
e 108 118
e 108 121
e 108 125
e 108 126
e 108 127
e 108 130
e 108 133
e 108 140
e 108 142
e 108 143
e 108 144
e 108 147
e 108 148
e 108 150
e 109 110
e 109 117
e 109 120
e 109 123
e 109 124
e 109 126
e 109 131
e 109 135
e 109 136
e 109 137
e 109 138
e 109 140
e 109 144
e 109 145
e 109 146
e 109 148
e 109 149
e 109 150
e 110 113
e 110 114
e 110 115
e 110 117
e 110 119
e 110 123
e 110 124
e 110 125
e 110 129
e 110 130
e 110 131
e 110 132
e 110 140
e 110 145
e 110 146
e 110 147
e 111 112
e 111 113
e 111 116
e 111 123
e 111 124
e 111 127
e 111 131
e 111 132
e 111 134
e 111 137
e 111 138
e 111 139
e 111 141
e 111 142
e 111 143
e 111 144
e 111 146
e 111 147
e 112 117
e 112 118
e 112 121
e 112 122
e 112 123
e 112 125
e 112 127
e 112 128
e 112 129
e 112 130
e 112 136
e 112 138
e 112 140
e 112 142
e 112 144
e 112 145
e 112 147
e 113 114
e 113 115
e 113 118
e 113 120
e 113 123
e 113 124
e 113 126
e 113 128
e 113 129
e 113 131
e 113 136
e 113 137
e 113 139
e 113 143
e 113 147
e 113 150
e 114 118
e 114 120
e 114 123
e 114 128
e 114 129
e 114 130
e 114 131
e 114 132
e 114 133
e 114 136
e 114 141
e 114 142
e 114 143
e 114 146
e 114 147
e 114 150
e 115 117
e 115 118
e 115 119
e 115 121
e 115 124
e 115 125
e 115 127
e 115 130
e 115 133
e 115 135
e 115 136
e 115 140
e 115 147
e 115 149
e 115 150
e 116 120
e 116 121
e 116 122
e 116 127
e 116 128
e 116 130
e 116 131
e 116 133
e 116 136
e 116 137
e 116 138
e 116 139
e 116 140
e 116 147
e 116 148
e 116 150
e 117 121
e 117 122
e 117 129
e 117 131
e 117 136
e 117 138
e 117 142
e 117 143
e 117 144
e 117 147
e 117 148
e 117 150
e 118 123
e 118 124
e 118 125
e 118 126
e 118 127
e 118 128
e 118 129
e 118 130
e 118 132
e 118 133
e 118 134
e 118 136
e 118 137
e 118 138
e 118 142
e 118 144
e 118 145
e 118 146
e 118 150
e 119 122
e 119 128
e 119 129
e 119 133
e 119 134
e 119 142
e 119 143
e 119 147
e 119 150
e 120 122
e 120 123
e 120 128
e 120 129
e 120 131
e 120 132
e 120 133
e 120 140
e 120 142
e 120 146
e 120 148
e 121 123
e 121 125
e 121 133
e 121 134
e 121 137
e 121 139
e 121 145
e 121 147
e 121 148
e 121 150
e 122 126
e 122 130
e 122 132
e 122 133
e 122 134
e 122 137
e 122 141
e 122 143
e 122 146
e 122 147
e 122 150
e 123 126
e 123 128
e 123 130
e 123 132
e 123 134
e 123 137
e 123 138
e 123 139
e 123 141
e 123 144
e 123 145
e 123 147
e 124 126
e 124 127
e 124 128
e 124 132
e 124 135
e 124 143
e 124 145
e 124 148
e 124 150
e 125 130
e 125 134
e 125 135
e 125 139
e 125 141
e 125 142
e 125 143
e 125 146
e 125 149
e 125 150
e 126 127
e 126 131
e 126 134
e 126 136
e 126 138
e 126 142
e 126 143
e 126 150
e 127 129
e 127 131
e 127 135
e 127 136
e 127 137
e 127 141
e 127 142
e 127 146
e 127 147
e 127 148
e 127 149
e 128 129
e 128 131
e 128 134
e 128 138
e 128 142
e 129 130
e 129 136
e 129 139
e 129 142
e 129 145
e 129 146
e 129 148
e 129 149
e 130 132
e 130 133
e 130 134
e 130 135
e 130 136
e 130 137
e 130 138
e 130 140
e 130 141
e 130 142
e 131 134
e 131 136
e 131 137
e 131 139
e 131 142
e 131 143
e 131 144
e 131 145
e 131 146
e 132 133
e 132 135
e 132 136
e 132 137
e 132 142
e 132 143
e 132 144
e 132 146
e 132 148
e 132 149
e 132 150
e 133 136
e 133 137
e 133 138
e 133 139
e 133 147
e 133 149
e 134 136
e 134 137
e 134 140
e 134 143
e 134 145
e 134 150
e 135 136
e 135 141
e 135 144
e 135 147
e 135 148
e 135 149
e 136 137
e 136 139
e 136 140
e 136 141
e 136 143
e 136 148
e 136 150
e 137 139
e 137 140
e 137 146
e 137 147
e 137 148
e 138 139
e 138 143
e 138 144
e 138 145
e 138 146
e 138 149
e 139 140
e 139 141
e 139 142
e 139 143
e 139 145
e 139 147
e 139 148
e 139 149
e 141 142
e 141 144
e 141 150
e 142 149
e 143 145
e 143 146
e 143 149
e 143 150
e 144 146
e 144 148
e 145 147
e 145 149
e 145 150
e 146 147
e 146 148
e 147 148
e 148 149
e 148 150
e 149 150
